 $SYSTEM MWORDS=125 $END
 $GDDI NGROUP=1 $END
 $SCF CONV=1E-7 DIRSCF=.T. NPUNCH=0 DIIS=.F. SOSCF=.T. $END
 $CONTRL NPRINT=-5 ISPHER=1
         RUNTYP=ENERGY
 $END
 $BASIS GBASIS=N21 NGAUSS=3 $END
 $FMOPRP NPRINT=9 NGUESS=2 $END
 $FMO
      NFRAG=2
      NBODY=2
      RESDIM=2.0
      RCORSD=2.0
      NLAYER=1
      MPLEVL(1)=0
      ICHARG(1)=  0,  0
      FRGNAM(1)= FRM001,  FRM002
      INDAT(1)=0
                1     -4      0
                5     -8      0



 $END

 $DATA

c1
H-1 1
C-1 6
O-1 8
 $END
 $FMOXYZ
      1      C         0.134000    -0.223000     1.736000
      2      O         1.337000    -0.342000     1.984000
      3      H        -0.472000     0.592000     2.129000
      4      H        -0.381000    -0.935000     1.064000
      5      C         0.480000     2.657000     0.509000
      6      O         1.551000     2.830000     1.075000
      7      H         0.280000     1.752000    -0.088000
      8      H        -0.346000     3.385000     0.558000
 $END
 $FMOEFP
   NLEVEL=1
 $END
 $EFRAG
COORD=CART
FRAGNAME=H2ORHF
O1         0.567000    -3.198000     2.168000
H2         1.449000    -2.833000     2.348000
H3         0.698000    -3.608000     1.296000
FRAGNAME=H2ORHF
O1         3.014000    -1.981000    -2.150000
H2         3.283000    -2.273000    -1.251000
H3         2.085000    -2.279000    -2.150000
FRAGNAME=H2ORHF
O1        -0.503000     1.918000    -2.418000
H2         0.359000     2.219000    -2.758000
H3        -0.555000     0.995000    -2.737000
FRAGNAME=H2ORHF
O1        -0.715000    -0.259000     4.502000
H2         0.024000     0.365000     4.588000
H3        -0.270000    -1.113000     4.364000
FRAGNAME=H2ORHF
O1         0.565000    -0.651000    -2.367000
H2         1.114000    -0.752000    -3.167000
H3         1.134000    -0.044000    -1.841000
FRAGNAME=H2ORHF
O1         2.696000    -1.893000     0.478000
H2         2.825000    -1.395000     1.321000
H3         1.895000    -1.414000     0.174000
FRAGNAME=H2ORHF
O1         2.708000     0.641000    -1.169000
H2         3.247000    -0.025000    -1.659000
H3         3.122000     0.591000    -0.284000
FRAGNAME=H2ORHF
O1         2.622000     3.502000    -1.430000
H2         2.743000     2.535000    -1.352000
H3         2.553000     3.753000    -0.486000
 $END
