 $SYSTEM MWORDS=125 $END
 $GDDI NGROUP=1 $END
 $SCF CONV=1E-7 DIRSCF=.T. NPUNCH=0 DIIS=.F. SOSCF=.T. $END
 $CONTRL NPRINT=-5 ISPHER=1
         RUNTYP=ENERGY
 $END
 $BASIS GBASIS=N21 NGAUSS=3 $END
 $FMOPRP NPRINT=9 NGUESS=2 $END
 $FMO
      NFRAG=4
      NBODY=2
      RESDIM=2.0
      RCORSD=2.0
      NLAYER=1
      MPLEVL(1)=0
      ICHARG(1)=  1,  0,  0, -1
      FRGNAM(1)= None001,  None002,  None003,  None004
      INDAT(1)=0
                1    -14     17    -22      0
               15     16     23     24     27    -32      0
               25     26     33     34     37    -42      0
               35     36     43    -53      0



 $END
 $FMOBND
       -14        15 3-21G
       -24        25 3-21G
       -34        35 3-21G
 $END
 $DATA

c1
H-1 1
C-1 6
N-1 7
O-1 8
 $END
 $FMOHYB
3-21G 9 5
0 1   0.987093   0.099358   0.000000   0.000000   0.000001
     -0.072303   0.000000   0.000000  -0.000006
0 1  -0.104458   0.101228  -0.152877   0.264790  -0.108088
      0.306713  -0.126558   0.219205  -0.089474
0 1   0.104458  -0.101228  -0.305753   0.000000   0.108088
     -0.306713  -0.253116   0.000000   0.089474
0 1  -0.104458   0.101228  -0.152877  -0.264790  -0.108088
      0.306713  -0.126558  -0.219205  -0.089474
1 0  -0.104439   0.101202   0.000000   0.000000   0.324305
      0.306676   0.000000   0.000000   0.268499
 $END
 $FMOXYZ
      1      N         0.000000     0.000000     0.000000
      2      C         1.455750     0.000000     0.000000
      3      C         1.930140     0.000000     1.462720
      4      O         1.160040     0.000000     2.421470
      5      H        -0.495040     0.091310     0.883040
      6      H         1.799040    -0.925630    -0.476320
      7      C         2.009530     1.208310    -0.745970
      8      H         1.657340     1.230080    -1.782410
      9      H         1.695350     2.143180    -0.268490
     10      H         3.104480     1.197270    -0.763300
     11      H        -0.339150     0.853340    -0.434800
     12      H        -0.339150    -0.853340    -0.434800
     13      N         3.240710    -0.000000     1.742020
     14      C         3.689820     0.000220     3.126760
     15      C         5.227540     0.000160     3.126760
     16      O         5.901950    -0.000040     2.098430
     17      H         3.927950    -0.091470     0.998730
     18      H         3.342670     0.925950     3.600100
     19      C         3.151040    -1.207940     3.883870
     20      H         2.056500    -1.229680     3.868620
     21      H         3.508270    -2.142900     3.437880
     22      H         3.472360    -1.196740     4.930760
     23      N         5.897540     0.000340     4.287230
     24      C         7.353290     0.000060     4.287230
     25      C         7.827690     0.000350     5.749950
     26      O         7.057580     0.000740     6.708710
     27      H         5.402530     0.091970     5.170250
     28      H         7.696410    -0.925760     3.811150
     29      C         7.907300     1.208070     3.540950
     30      H         7.555110     1.229650     2.504510
     31      H         7.593300     2.143140     4.018190
     32      H         9.002250     1.196830     3.523630
     33      N         9.138260     0.000180     6.029260
     34      C         9.587360     0.000670     7.413990
     35      C        11.125090     0.000330     7.413990
     36      O        11.799500    -0.000260     6.385670
     37      H         9.825480    -0.091610     5.285980
     38      H         9.240390     0.926590     7.887090
     39      C         9.048360    -1.207190     8.171420
     40      H         7.953820    -1.228730     8.156170
     41      H         9.405410    -2.142340     7.725660
     42      H         9.369680    -1.195780     9.218300
     43      N        11.795090     0.000680     8.574470
     44      C        13.250830     0.000130     8.574470
     45      C        13.725230     0.000710    10.037190
     46      O        12.955120     0.001490    10.995940
     47      H        11.300090     0.092630     9.457460
     48      H        13.593780    -0.925880     8.098620
     49      C        13.805070     1.207840     7.827880
     50      H        13.452890     1.229220     6.791430
     51      H        13.491240     2.143090     8.304870
     52      H        14.900020     1.196390     7.810550
     53      O        15.060430     0.000310    10.243230
 $END
