 $SYSTEM MWORDS=125 $END
 $GDDI NGROUP=1 $END
 $SCF CONV=1E-7 DIRSCF=.T. NPUNCH=0 DIIS=.F. SOSCF=.T. $END
 $CONTRL NPRINT=-5 ISPHER=1
         RUNTYP=ENERGY
 $END
 $BASIS GBASIS=N21 NGAUSS=3 $END
 $FMOPRP NPRINT=9 NGUESS=2 $END
 $FMO
      NFRAG=0
      NBODY=2
      RESDIM=2.0
      RCORSD=2.0
      NLAYER=1
      MPLEVL(1)=0
      ICHARG(1)=
      FRGNAM(1)=
      INDAT(1)=0



 $END

 $DATA

c1
H-1 1
O-1 8
 $END
