 $SYSTEM MWORDS=125 $END
 $GDDI NGROUP=1 $END
 $SCF CONV=1E-7 DIRSCF=.T. NPUNCH=0 DIIS=.F. SOSCF=.T. $END
 $CONTRL NPRINT=-5 ISPHER=1
         RUNTYP=ENERGY
 $END
 $BASIS GBASIS=N21 NGAUSS=3 $END
 $FMOPRP NPRINT=9 NGUESS=2 $END
 $FMO
      NBODY=2
      RAFO(1)=1,1,1
      RESDIM=2.0 RCORSD=2.0
      NLAYER=1
      NFRAG=0
      ICHARG(1)=
      FRGNAM(1)=
      MPLEVL(1)=0
      INDAT(1)=0



 $END


 $DATA

c1
H-1 1
O-1 8
 $END
 $FMOXYZ
      1      O        -3.570330     1.164450     0.437090
      2      H        -3.157890     1.889600    -0.073140
      3      H        -3.271470     0.367920    -0.042220
      4      O        -1.658580     3.120680    -0.258550
      5      H        -0.850360     2.734330    -0.631520
      6      H        -1.518670     3.020410     0.700490
      7      O        -1.810370    -1.320150    -0.446040
      8      H        -1.111250    -0.740410    -0.076260
      9      H        -1.300950    -2.013600    -0.889710
     10      O         0.346660     0.614880     0.348080
     11      H         1.237290     0.746030    -0.014700
     12      H         0.504990     0.621300     1.311440
 $END
