 $SYSTEM MWORDS=125 $END
 $GDDI NGROUP=1 $END
 $SCF CONV=1E-7 DIRSCF=.T. NPUNCH=0 DIIS=.F. SOSCF=.T. $END
 $CONTRL NPRINT=-5 ISPHER=1
         RUNTYP=ENERGY
 $END
 $BASIS GBASIS=N21 NGAUSS=3 $END
 $FMO
      NBODY=2
      RAFO(1)=1,1,1
      RESDIM=2.0 RCORSD=2.0
      NLAYER=1
      NFRAG=4
      ICHARG(1)=  0,  0,  0,  0
      FRGNAM(1)= None001,  None002,  None003,  None004
      MPLEVL(1)=0
      INDAT(1)=0
                1     -3      0
                4     -6      0
                7     -9      0
               10    -12      0



 $END
 $FMOPRP NPRINT=9 NGUESS=2 $END


 $DATA

c1
H-1 1
O-1 8
 $END
 $FMOXYZ
     O3      O        -3.570330     1.164450     0.437090
     HO      H        -3.157890     1.889600    -0.073140
     HO      H        -3.271470     0.367920    -0.042220
     O3      O        -1.658580     3.120680    -0.258550
     HO      H        -0.850360     2.734330    -0.631520
     HO      H        -1.518670     3.020410     0.700490
     O3      O        -1.810370    -1.320150    -0.446040
     HO      H        -1.111250    -0.740410    -0.076260
     HO      H        -1.300950    -2.013600    -0.889710
     O3      O         0.346660     0.614880     0.348080
     HO      H         1.237290     0.746030    -0.014700
     HO      H         0.504990     0.621300     1.311440
 $END
